(set-info :Origin "This instance was generated by: BanditFuzz-- an RL fuzzer for SMT solvers" )
(set-info :Author "Joe Scott, Fed Mora, Vijay Ganesh" )
(set-info :Contact "Joe Scott, joseph.scott@uwaterloo.ca")
(set-logic QF_BV)
(declare-const bool_0 Bool)
(declare-const bool_1 Bool)
(declare-const bool_2 Bool)
(declare-const bool_3 Bool)
(declare-const bool_4 Bool)
(declare-const bv_0 (_ BitVec 32))
(declare-const bv_1 (_ BitVec 32))
(declare-const bv_2 (_ BitVec 32))
(declare-const bv_3 (_ BitVec 32))
(declare-const bv_4 (_ BitVec 32))
(assert (bvugt (bvnand (bvand bv_1 bv_4) (bvadd #xdb10a7ce  bv_3)) (bvnor (bvsdiv bv_2 bv_0) (bvudiv bv_2 #x6aa6d5f5 ))))
(assert (bvule (bvurem (bvurem bv_4 bv_1) (bvor bv_3 bv_4)) (bvnand (bvurem bv_4 #xd0eca324 ) (bvlshr bv_0 bv_1))))
(assert (bvslt (bvadd (bvor bv_0 #xc2e05901 ) (bvand #x5d7d5fc2  #x369e37ce )) (bvand (bvsub #x278c9f74  #xaf2946a4 ) (bvlshr #x334959a7  #xfb17055f ))))
(assert (or (xor (=> false bool_4) (bvslt bv_4 bv_3)) (bvslt (bvnand #x0d90185c  bv_0) (bvnand bv_2 #x44bbceb7 ))))
(assert (not (bvsge (bvmul #x09d189a7  bv_1) (bvashr bv_1 #xe236f9df ))))
(check-sat)
(exit)
